nLocations = 5;
nCities = 8;
nTypes = 3;

p = [8 3 6 5 9 3 3 3];
posCities = [[4 2] [4 0] [3 3] [0 6] [5 3] [1 6] [4 1] [1 4]];
posLocations = [[3 2] [6 6] [4 6] [2 4] [2 2]];

d_city = [7 9 10];
cap = [15 14 5];
cost = [36 43 26];

d_center = 0.5;
